projected/problems_b25_r0_d7_m100_s666/_DIMACS/b25_d7_r0_s666_072.cnf
p cnf 239 402 25
c p show 1 2 3 4 5 6 7 8 9 10 11 12 13 14 15 16 17 18 19 20 21 22 23 24 25
-177 -18 0
-177 -2 0
-178 2 0
-178 18 0
-179 178 177 0
-180 12 0
-180 22 0
-181 180 179 0
-182 25 20 0
-183 23 -22 0
-184 183 182 0
-185 184 181 0
-186 -11 12 0
-187 21 0
-187 -11 0
-188 187 0
-188 186 0
-189 -21 11 0
-190 11 0
-190 -12 0
-191 190 0
-191 189 0
-192 191 188 0
-193 -18 0
-193 -19 0
-194 -6 0
-194 -10 0
-195 194 193 0
-196 195 0
-196 192 0
-197 196 0
-197 185 0
-198 5 0
-198 -4 0
-199 -21 7 0
-200 199 0
-200 198 0
-201 -18 25 0
-202 -11 23 0
-203 202 0
-203 201 0
-204 203 200 0
-205 18 0
-205 -25 0
-206 11 0
-206 -23 0
-207 206 205 0
-208 -5 4 0
-209 21 0
-209 -7 0
-210 209 208 0
-211 210 207 0
-212 211 0
-212 204 0
-213 22 20 0
-214 -5 0
-214 -3 0
-215 214 0
-215 213 0
-216 -19 -25 0
-217 4 0
-217 -9 0
-218 217 0
-218 216 0
-219 218 215 0
-220 219 212 0
-221 -22 0
-221 -20 0
-222 5 3 0
-223 222 221 0
-224 19 0
-224 25 0
-225 -4 9 0
-226 225 224 0
-227 226 0
-227 223 0
-228 207 0
-228 210 0
-229 200 0
-229 203 0
-230 229 228 0
-231 230 227 0
-232 231 0
-232 220 0
-233 232 0
-233 197 0
-234 21 23 0
-235 14 4 0
-236 235 234 0
-237 22 5 0
-238 24 0
-238 17 0
-239 -17 0
-239 -24 0
-26 239 238 0
-27 26 0
-27 237 0
-28 27 0
-28 236 0
-29 -16 21 0
-30 -15 -18 0
-55 30 29 0
-61 -21 -15 0
-66 -18 14 0
-73 66 0
-73 61 0
-79 73 55 0
-31 21 0
-31 15 0
-32 18 0
-32 -14 0
-33 32 31 0
-34 16 0
-34 -21 0
-35 15 0
-35 18 0
-36 35 0
-36 34 0
-37 36 33 0
-38 37 0
-38 79 0
-39 38 0
-39 28 0
-40 -2 16 0
-41 5 0
-41 15 0
-42 41 0
-42 40 0
-43 14 0
-43 -12 0
-44 -20 0
-44 -3 0
-45 44 43 0
-46 45 0
-46 42 0
-47 8 0
-48 23 -24 0
-49 48 47 0
-50 -11 -10 0
-51 10 11 0
-52 51 0
-52 50 0
-53 -14 17 0
-54 53 0
-54 52 0
-56 54 0
-56 49 0
-57 56 46 0
-58 57 0
-58 39 0
-59 58 0
-59 233 0
-60 1 -3 0
-62 4 1 0
-63 62 60 0
-64 -24 0
-64 -18 0
-65 -2 0
-65 2 0
-67 65 64 0
-68 67 63 0
-69 -13 -1 0
-70 9 2 0
-71 70 69 0
-72 8 -10 0
-74 -9 0
-74 -11 0
-75 11 0
-75 9 0
-76 75 74 0
-77 76 0
-77 72 0
-78 77 0
-78 71 0
-80 78 0
-80 68 0
-81 13 0
-81 1 0
-82 -9 0
-82 -2 0
-83 82 0
-83 81 0
-84 -8 0
-84 10 0
-85 9 11 0
-86 -11 -9 0
-87 86 0
-87 85 0
-88 87 84 0
-89 88 83 0
-90 -1 0
-90 3 0
-91 -4 0
-91 -1 0
-92 91 0
-92 90 0
-93 24 18 0
-94 2 -2 0
-95 94 0
-95 93 0
-96 95 0
-96 92 0
-97 96 0
-97 89 0
-98 97 80 0
-99 -9 -6 0
-100 -12 22 0
-101 100 0
-101 99 0
-102 -4 0
-102 -5 0
-103 5 0
-103 4 0
-104 103 102 0
-105 -9 0
-105 10 0
-106 105 0
-106 104 0
-107 106 0
-107 101 0
-108 9 25 0
-109 5 -8 0
-110 109 108 0
-111 -5 0
-111 8 0
-112 -9 0
-112 -25 0
-113 112 111 0
-114 113 0
-114 110 0
-115 9 0
-115 -10 0
-116 10 0
-116 13 0
-117 116 0
-117 115 0
-118 117 114 0
-119 118 107 0
-120 119 0
-120 98 0
-121 -16 0
-121 20 0
-122 -14 -18 0
-123 18 14 0
-124 123 0
-124 122 0
-125 124 0
-125 121 0
-126 7 15 0
-127 19 12 0
-128 127 0
-128 126 0
-129 128 0
-129 125 0
-130 -25 2 0
-131 -22 -23 0
-132 131 0
-132 130 0
-133 24 -13 0
-134 25 0
-134 9 0
-135 134 133 0
-136 135 132 0
-137 -24 0
-137 13 0
-138 -25 -9 0
-139 138 0
-139 137 0
-140 25 0
-140 -2 0
-141 22 0
-141 23 0
-142 141 140 0
-143 142 139 0
-144 143 0
-144 136 0
-145 144 0
-145 129 0
-146 -9 -14 0
-147 15 -6 0
-148 147 146 0
-149 7 0
-149 24 0
-150 -24 0
-150 -7 0
-151 150 149 0
-152 -5 0
-152 22 0
-153 152 0
-153 151 0
-154 153 0
-154 148 0
-155 -8 0
-155 18 0
-156 7 -5 0
-157 156 0
-157 155 0
-158 -7 0
-158 5 0
-159 8 -18 0
-160 159 0
-160 158 0
-161 160 157 0
-162 7 0
-162 -25 0
-163 2 -14 0
-164 163 0
-164 162 0
-165 164 0
-165 161 0
-166 -7 25 0
-167 -2 0
-167 14 0
-168 167 166 0
-169 158 159 0
-170 155 156 0
-171 170 0
-171 169 0
-172 171 0
-172 168 0
-173 172 165 0
-174 173 0
-174 154 0
-175 174 145 0
-176 175 0
-176 120 0
176 59 0
-189 -187 0
-187 -189 0
-186 -190 0
-190 -186 0
-221 -213 0
-214 -222 0
-222 -214 0
-223 -215 0
-215 -223 0
-216 -224 0
-225 -217 0
-217 -225 0
-218 -226 0
-219 -227 0
-227 -219 0
-201 -205 0
-202 -206 0
-203 -207 0
-207 -203 0
-198 -208 0
-209 -199 0
-199 -209 0
-200 -210 0
-212 -230 0
-61 -31 0
-31 -61 0
-66 -32 0
-32 -66 0
-33 -73 0
-29 -34 0
-34 -29 0
-35 -30 0
-36 -55 0
-55 -36 0
-81 -69 0
-70 -82 0
-82 -70 0
-83 -71 0
-71 -83 0
-84 -72 0
-72 -84 0
-87 -76 0
-76 -87 0
-77 -88 0
-78 -89 0
-90 -60 0
-91 -62 0
-92 -63 0
-64 -93 0
-94 -65 0
-65 -94 0
-67 -95 0
-95 -67 0
-96 -68 0
-109 -111 0
-111 -109 0
-112 -108 0
-108 -112 0
-133 -137 0
-137 -133 0
-134 -138 0
-138 -134 0
-139 -135 0
-130 -140 0
-140 -130 0
-141 -131 0
-142 -132 0
-132 -142 0
-166 -162 0
-167 -163 0
-168 -164 0
-164 -168 0
-156 -158 0
-159 -155 0
-171 -161 0
