projected/problems_b25_r0_d7_m100_s666/b25_d7_r0_s666_072.smt2
(set-logic QF_UF)
(declare-fun A0 () Bool)
(declare-fun A1 () Bool)
(declare-fun A2 () Bool)
(declare-fun A3 () Bool)
(declare-fun A4 () Bool)
(declare-fun A5 () Bool)
(declare-fun A6 () Bool)
(declare-fun A7 () Bool)
(declare-fun A8 () Bool)
(declare-fun A9 () Bool)
(declare-fun A10 () Bool)
(declare-fun A11 () Bool)
(declare-fun A12 () Bool)
(declare-fun A13 () Bool)
(declare-fun A14 () Bool)
(declare-fun A15 () Bool)
(declare-fun A16 () Bool)
(declare-fun A17 () Bool)
(declare-fun A18 () Bool)
(declare-fun A19 () Bool)
(declare-fun A20 () Bool)
(declare-fun A21 () Bool)
(declare-fun A22 () Bool)
(declare-fun A23 () Bool)
(declare-fun A24 () Bool)
(assert (let ((.def_0 (not A17))) (let ((.def_1 (= A1 .def_0))) (let ((.def_2 (and A11 A21))) (let ((.def_3 (not .def_2))) (let ((.def_4 (and .def_3 .def_1))) (let ((.def_5 (not A19))) (let ((.def_6 (not A24))) (let ((.def_7 (and .def_6 .def_5))) (let ((.def_8 (not A22))) (let ((.def_9 (and .def_8 A21))) (let ((.def_10 (and .def_9 .def_7))) (let ((.def_11 (and .def_10 .def_4))) (let ((.def_12 (not .def_11))) (let ((.def_13 (not A20))) (let ((.def_14 (or .def_13 A10))) (let ((.def_15 (not .def_14))) (let ((.def_16 (not A10))) (let ((.def_17 (or .def_16 A11))) (let ((.def_18 (not .def_17))) (let ((.def_19 (= .def_18 .def_15))) (let ((.def_20 (or A17 A18))) (let ((.def_21 (or A5 A9))) (let ((.def_22 (and .def_21 .def_20))) (let ((.def_23 (or .def_22 .def_19))) (let ((.def_24 (not .def_23))) (let ((.def_25 (and .def_24 .def_12))) (let ((.def_26 (not A21))) (let ((.def_27 (and .def_26 .def_5))) (let ((.def_28 (not A2))) (let ((.def_29 (not A4))) (let ((.def_30 (and .def_29 .def_28))) (let ((.def_31 (not .def_30))) (let ((.def_32 (or .def_31 .def_27))) (let ((.def_33 (not .def_32))) (let ((.def_34 (not A18))) (let ((.def_35 (or .def_34 .def_6))) (let ((.def_36 (not A3))) (let ((.def_37 (or .def_36 A8))) (let ((.def_38 (not .def_37))) (let ((.def_39 (and .def_38 .def_35))) (let ((.def_40 (or .def_39 .def_33))) (let ((.def_41 (not .def_40))) (let ((.def_42 (or .def_0 A24))) (let ((.def_43 (or .def_16 A22))) (let ((.def_44 (and .def_43 .def_42))) (let ((.def_45 (not .def_44))) (let ((.def_46 (and A4 .def_36))) (let ((.def_47 (not A6))) (let ((.def_48 (and A20 .def_47))) (let ((.def_49 (not .def_48))) (let ((.def_50 (and .def_49 .def_46))) (let ((.def_51 (= .def_50 .def_45))) (let ((.def_52 (= .def_51 .def_41))) (let ((.def_53 (and .def_52 .def_25))) (let ((.def_54 (not .def_53))) (let ((.def_55 (or A20 A22))) (let ((.def_56 (not A13))) (let ((.def_57 (and .def_56 .def_36))) (let ((.def_58 (not .def_57))) (let ((.def_59 (or .def_58 .def_55))) (let ((.def_60 (or A21 A4))) (let ((.def_61 (not .def_60))) (let ((.def_62 (not A16))) (let ((.def_63 (= .def_62 A23))) (let ((.def_64 (or .def_63 .def_61))) (let ((.def_65 (not .def_64))) (let ((.def_66 (and .def_65 .def_59))) (let ((.def_67 (not A14))) (let ((.def_68 (or .def_13 .def_67))) (let ((.def_69 (not .def_68))) (let ((.def_70 (or .def_0 A13))) (let ((.def_71 (not .def_70))) (let ((.def_72 (or .def_71 .def_69))) (let ((.def_73 (not A15))) (let ((.def_74 (or .def_73 A20))) (let ((.def_75 (not .def_74))) (let ((.def_76 (and A14 A17))) (let ((.def_77 (and .def_76 .def_75))) (let ((.def_78 (not .def_77))) (let ((.def_79 (= .def_78 .def_72))) (let ((.def_80 (and .def_79 .def_66))) (let ((.def_81 (not .def_80))) (let ((.def_82 (and A1 .def_73))) (let ((.def_83 (not .def_82))) (let ((.def_84 (or .def_29 .def_67))) (let ((.def_85 (not .def_84))) (let ((.def_86 (and .def_85 .def_83))) (let ((.def_87 (or .def_56 A11))) (let ((.def_88 (not .def_87))) (let ((.def_89 (and .def_5 .def_28))) (let ((.def_90 (or .def_89 .def_88))) (let ((.def_91 (and .def_90 .def_86))) (let ((.def_92 (not .def_91))) (let ((.def_93 (and A7 A7))) (let ((.def_94 (not .def_93))) (let ((.def_95 (not A23))) (let ((.def_96 (or A22 .def_95))) (let ((.def_97 (not .def_96))) (let ((.def_98 (and .def_97 .def_94))) (let ((.def_99 (not .def_98))) (let ((.def_100 (not A9))) (let ((.def_101 (= .def_100 A10))) (let ((.def_102 (not .def_101))) (let ((.def_103 (and A13 .def_62))) (let ((.def_104 (or .def_103 .def_102))) (let ((.def_105 (not .def_104))) (let ((.def_106 (and .def_105 .def_99))) (let ((.def_107 (not .def_106))) (let ((.def_108 (and .def_107 .def_92))) (let ((.def_109 (or .def_108 .def_81))) (let ((.def_110 (or .def_109 .def_54))) (let ((.def_111 (and A12 A0))) (let ((.def_112 (or A8 A1))) (let ((.def_113 (not .def_112))) (let ((.def_114 (and .def_113 .def_111))) (let ((.def_115 (not .def_114))) (let ((.def_116 (not A7))) (let ((.def_117 (and .def_116 A9))) (let ((.def_118 (not .def_117))) (let ((.def_119 (not A8))) (let ((.def_120 (= A10 .def_119))) (let ((.def_121 (not .def_120))) (let ((.def_122 (and .def_121 .def_118))) (let ((.def_123 (and .def_122 .def_115))) (let ((.def_124 (not A0))) (let ((.def_125 (and .def_124 A2))) (let ((.def_126 (and .def_36 .def_124))) (let ((.def_127 (and .def_126 .def_125))) (let ((.def_128 (and .def_95 .def_0))) (let ((.def_129 (not A1))) (let ((.def_130 (or A1 .def_129))) (let ((.def_131 (not .def_130))) (let ((.def_132 (or .def_131 .def_128))) (let ((.def_133 (not .def_132))) (let ((.def_134 (and .def_133 .def_127))) (let ((.def_135 (= .def_134 .def_123))) (let ((.def_136 (not A5))) (let ((.def_137 (or .def_119 .def_136))) (let ((.def_138 (and A11 .def_26))) (let ((.def_139 (not .def_138))) (let ((.def_140 (and .def_139 .def_137))) (let ((.def_141 (= A4 .def_36))) (let ((.def_142 (or A8 .def_100))) (let ((.def_143 (or .def_142 .def_141))) (let ((.def_144 (not .def_143))) (let ((.def_145 (and .def_144 .def_140))) (let ((.def_146 (or A4 .def_116))) (let ((.def_147 (not .def_146))) (let ((.def_148 (and .def_119 .def_6))) (let ((.def_149 (not .def_148))) (let ((.def_150 (= .def_149 .def_147))) (let ((.def_151 (or .def_119 A9))) (let ((.def_152 (not A12))) (let ((.def_153 (or .def_100 .def_152))) (let ((.def_154 (or .def_153 .def_151))) (let ((.def_155 (not .def_154))) (let ((.def_156 (or .def_155 .def_150))) (let ((.def_157 (or .def_156 .def_145))) (let ((.def_158 (not .def_157))) (let ((.def_159 (or .def_158 .def_135))) (let ((.def_160 (not .def_159))) (let ((.def_161 (and .def_73 A19))) (let ((.def_162 (not .def_161))) (let ((.def_163 (= .def_0 A13))) (let ((.def_164 (not .def_163))) (let ((.def_165 (or .def_164 .def_162))) (let ((.def_166 (and .def_47 .def_67))) (let ((.def_167 (not .def_166))) (let ((.def_168 (not A11))) (let ((.def_169 (and .def_34 .def_168))) (let ((.def_170 (not .def_169))) (let ((.def_171 (and .def_170 .def_167))) (let ((.def_172 (not .def_171))) (let ((.def_173 (or .def_172 .def_165))) (let ((.def_174 (not .def_173))) (let ((.def_175 (or A23 .def_152))) (let ((.def_176 (not .def_175))) (let ((.def_177 (and A24 A8))) (let ((.def_178 (not .def_177))) (let ((.def_179 (and .def_178 .def_176))) (let ((.def_180 (or .def_6 A1))) (let ((.def_181 (not .def_180))) (let ((.def_182 (and A21 A22))) (let ((.def_183 (or .def_182 .def_181))) (let ((.def_184 (not .def_183))) (let ((.def_185 (= .def_184 .def_179))) (let ((.def_186 (and .def_185 .def_174))) (let ((.def_187 (and A8 A13))) (let ((.def_188 (not .def_187))) (let ((.def_189 (or A14 .def_136))) (let ((.def_190 (or .def_189 .def_188))) (let ((.def_191 (not .def_190))) (let ((.def_192 (= .def_95 A6))) (let ((.def_193 (not .def_192))) (let ((.def_194 (or A4 .def_26))) (let ((.def_195 (not .def_194))) (let ((.def_196 (and .def_195 .def_193))) (let ((.def_197 (not .def_196))) (let ((.def_198 (or .def_197 .def_191))) (let ((.def_199 (or .def_47 A24))) (let ((.def_200 (and .def_129 A13))) (let ((.def_201 (or .def_200 .def_199))) (let ((.def_202 (not .def_201))) (let ((.def_203 (or A6 .def_29))) (let ((.def_204 (or A7 .def_0))) (let ((.def_205 (= .def_204 .def_203))) (let ((.def_206 (= .def_205 .def_202))) (let ((.def_207 (or .def_206 .def_198))) (let ((.def_208 (not .def_207))) (let ((.def_209 (or .def_208 .def_186))) (let ((.def_210 (and .def_209 .def_160))) (let ((.def_211 (not .def_210))) (let ((.def_212 (and .def_211 .def_110))) (let ((.def_213 (not .def_212))) .def_213)))))))))))))))))))))))))))))))))))))))))))))))))))))))))))))))))))))))))))))))))))))))))))))))))))))))))))))))))))))))))))))))))))))))))))))))))))))))))))))))))))))))))))))))))))))))))))))))))))))))))))))))))))))))
(check-sat)
